1316989
20, 44, 25, 29, 16, 107, 94, 46, 81, 2, 59, 84, 51, 32, 95, 43, 85, 61, 6, 30, 103, 79, 67, 4, 92, 56, 74, 64, 22, 102, 54, 58, 104, 97, 91, 89, 11, 49, 10, 109, 90, 24, 23, 15, 80, 48, 21, 17, 53, 100, 105, 99, 76, 42, 60, 12, 65, 88, 7, 18, 50, 73, 19, 62, 87, 96, 93, 13, 108, 33, 78, 106, 55, 72, 38, 71, 28, 1, 101, 68, 40, 8, 36, 47, 31, 39, 70, 41, 26, 37, 66, 77, 9, 5, 35, 14, 69, 27, 86, 75, 57, 82, 45, 34, 98, 52, 83, 3, 63
